c ind 10 103 11 14 15 19 21 23 32 35 0
c ind 44 51 6 69 7 71 73 75 0
p cnf 103 316
-1 -2 16 0
-1 2 102 0
-100 73 0
-100 96 0
-101 -19 23 0
-101 -23 19 0
-102 -103 23 0
-102 -23 103 0
-12 -13 0
-13 -14 15 0
-13 -15 14 0
-16 -17 22 0
-16 17 24 0
-17 18 20 0
-18 -14 19 0
-18 -19 14 0
-2 3 12 0
-20 -10 21 0
-20 -21 10 0
-21 0
-22 -21 23 0
-22 -23 21 0
-24 -25 27 0
-24 25 102 0
-25 26 0
-25 4 0
-26 -19 6 0
-26 -6 19 0
-27 -28 45 0
-27 28 102 0
-28 -29 36 0
-28 29 43 0
-29 30 33 0
-3 4 8 0
-30 -31 0
-31 -11 32 0
-31 -32 11 0
-33 -34 0
-34 -15 35 0
-34 -35 15 0
-36 -37 38 0
-36 37 39 0
-37 -15 19 0
-37 -19 15 0
-38 -19 21 0
-38 -21 19 0
-39 -40 42 0
-39 40 43 0
-4 -5 0
-40 30 0
-40 41 0
-41 -11 19 0
-41 -19 11 0
-42 -19 19 0
-43 -19 44 0
-43 -44 19 0
-45 -46 101 0
-45 46 102 0
-46 -47 52 0
-46 47 76 0
-47 48 33 0
-48 49 30 0
-49 -50 0
-5 -6 7 0
-5 -7 6 0
-50 -51 7 0
-50 -7 51 0
-52 -53 55 0
-52 53 59 0
-53 37 54 0
-54 -11 21 0
-54 -21 11 0
-55 56 0
-55 58 0
-56 38 0
-56 57 0
-57 38 0
-58 -21 21 0
-59 -60 62 0
-59 60 76 0
-60 49 0
-60 61 0
-61 -19 7 0
-61 -7 19 0
-62 -63 64 0
-62 63 76 0
-63 -19 44 0
-63 -44 19 0
-64 -65 76 0
-64 65 83 0
-65 66 0
-65 74 0
-66 67 0
-66 72 0
-67 68 0
-67 70 0
-68 -19 69 0
-68 -69 19 0
-70 -19 71 0
-70 -71 19 0
-72 -19 73 0
-72 -73 19 0
-74 -21 75 0
-74 -75 21 0
-76 77 0
-76 82 0
-77 78 0
-77 81 0
-78 79 0
-78 80 0
-79 -19 69 0
-79 -69 19 0
-8 -9 0
-80 -19 71 0
-80 -71 19 0
-81 -19 73 0
-81 -73 19 0
-82 -21 75 0
-82 -75 21 0
-83 84 0
-83 97 0
-84 85 0
-84 93 0
-85 86 0
-85 89 0
-86 -19 87 0
-86 -87 19 0
-87 -88 -21 0
-87 88 21 0
-88 -69 -19 0
-88 69 19 0
-89 -19 90 0
-89 -90 19 0
-9 -10 11 0
-9 -11 10 0
-90 -91 -92 0
-90 91 92 0
-91 -71 -21 0
-91 71 21 0
-92 69 21 0
-93 -19 94 0
-93 -94 19 0
-94 -95 -96 0
-94 95 96 0
-95 -73 -21 0
-95 73 21 0
-96 71 0
-96 92 0
-97 -21 98 0
-97 -98 21 0
-98 -99 -100 0
-98 99 100 0
-99 -75 -21 0
-99 75 21 0
1 -16 -102 0
1 -2 -16 0
1 0
1 2 -102 0
100 -73 -96 0
101 -23 -19 0
101 23 19 0
102 -23 -103 0
102 23 103 0
12 13 0
13 -14 -15 0
13 14 15 0
16 -17 -22 0
16 -22 -24 0
16 17 -24 0
17 -18 0
17 -20 0
18 -14 -19 0
18 14 19 0
19 0
2 -12 0
2 -3 0
20 -10 -21 0
20 10 21 0
22 -23 -21 0
22 23 21 0
24 -25 -27 0
24 -27 -102 0
24 25 -102 0
25 -4 -26 0
26 -6 -19 0
26 6 19 0
27 -28 -45 0
27 -45 -102 0
27 28 -102 0
28 -29 -36 0
28 -36 -43 0
28 29 -43 0
29 -30 0
29 -33 0
3 -4 0
3 -8 0
30 31 0
31 -11 -32 0
31 11 32 0
33 34 0
34 -15 -35 0
34 15 35 0
36 -37 -38 0
36 -38 -39 0
36 37 -39 0
37 -15 -19 0
37 15 19 0
38 -19 -21 0
38 19 21 0
39 -40 -42 0
39 -42 -43 0
39 40 -43 0
4 5 0
40 -30 -41 0
41 -11 -19 0
41 11 19 0
42 -19 -19 0
42 19 19 0
43 -19 -44 0
43 19 44 0
45 -101 -102 0
45 -46 -101 0
45 46 -102 0
46 -47 -52 0
46 -52 -76 0
46 47 -76 0
47 -33 0
47 -48 0
48 -30 0
48 -49 0
49 50 0
5 -6 -7 0
5 6 7 0
50 -7 -51 0
50 7 51 0
52 -53 -55 0
52 -55 -59 0
52 53 -59 0
53 -37 0
53 -54 0
54 -11 -21 0
54 11 21 0
55 -56 -58 0
56 -57 -38 0
57 -38 -38 0
58 -21 -21 0
58 21 21 0
59 -60 -62 0
59 -62 -76 0
59 60 -76 0
60 -49 -61 0
61 -7 -19 0
61 7 19 0
62 -63 -64 0
62 -64 -76 0
62 63 -76 0
63 -44 -19 0
63 44 19 0
64 -65 -76 0
64 -76 -83 0
64 65 -83 0
65 -66 -74 0
66 -67 -72 0
67 -68 -70 0
68 -69 -19 0
68 69 19 0
70 -71 -19 0
70 71 19 0
72 -73 -19 0
72 73 19 0
74 -75 -21 0
74 75 21 0
76 -77 -82 0
77 -78 -81 0
78 -79 -80 0
79 -19 -69 0
79 19 69 0
8 9 0
80 -19 -71 0
80 19 71 0
81 -19 -73 0
81 19 73 0
82 -21 -75 0
82 21 75 0
83 -84 -97 0
84 -85 -93 0
85 -86 -89 0
86 -19 -87 0
86 19 87 0
87 -21 88 0
87 -88 21 0
88 -19 69 0
88 -69 19 0
89 -19 -90 0
89 19 90 0
9 -10 -11 0
9 10 11 0
90 -91 92 0
90 -92 91 0
91 -21 71 0
91 -71 21 0
92 -21 0
92 -69 0
93 -19 -94 0
93 19 94 0
94 -95 96 0
94 -96 95 0
95 -21 73 0
95 -73 21 0
96 -71 -92 0
97 -21 -98 0
97 21 98 0
98 -100 99 0
98 -99 100 0
99 -21 75 0
99 -75 21 0
